Minimize
  0.0666666666666667 y_0 + 0.3333333333333333 y_1 + 0.25 y_2 + 0.2 y_3
   + 0.1666666666666667 y_4 + 0.2 y_5 + 0.0769230769230769 y_6
   + 0.1428571428571428 y_7 + y_8 + 0.2 y_9 - 2.636446886446886 Constant
Subject To
 c_0: y_4 = 1
 c_1_0: y_0 >= 1
 c_1_1: y_1 >= 1
 c_1_2: y_2 >= 1
 c_1_3: y_3 >= 1
 c_1_4: y_4 >= 1
 c_1_5: y_5 >= 1
 c_1_6: y_6 >= 1
 c_1_7: y_7 >= 1
 c_1_8: y_8 >= 1
 c_1_9: y_9 >= 1
Bounds
 Constant = 1
Binaries
 y_0 y_1 y_2 y_3 y_4 y_5 y_6 y_7 y_8 y_9
End
